x = 20;
y = 27;
c = 53;
n = 19;

p = [47  91  70  71  75  68  47  64  14  65  82  93  99  95  93  50  95  99  42];
w = [1  10  6  9  4  8  1  9  1  2  8  9  9  10  8  9  4  5  5];
s = [15  8  20  7  1  17  8  14  3  12  17  17  10  17  19  6  14  17  16];
